1497
0	93	208	344	441
0	151	247	346	461
0	109	242	391	448
0	52	247	329	430
81	320	391	525	571
15	430	538	593	713
129	146	350	512	587
5	146	499	587	629
89	252	622	672	736
194	461	565	672	735
0	528	577	806	868
209	620	736	794	864
179	286	353	692	698
698	794	820	877	955
557	863	871	936	1012
734	871	1012	1053	1083
1042	1120	1195	1283	1296
25	812	864	1120	1202
1202	1283	1365	1417	1423
313	1228	1292	1377	1409
